&GLOBAL
  PROJECT ##project## 
  RUN_TYPE ENERGY_FORCE
  PRINT_LEVEL LOW
&END GLOBAL
&FORCE_EVAL
   METHOD QUICKSTEP
   &PRINT
      &FORCES ON
      &END FORCES
   &END PRINT
   &DFT
      BASIS_SET_FILE_NAME BASIS_SET
      BASIS_SET_FILE_NAME BASIS_MOLOPT
      BASIS_SET_FILE_NAME BASIS_MOLOPT_UCL
      POTENTIAL_FILE_NAME GTH_POTENTIALS
      CHARGE 0
      MULTIPLICITY 0
      &SCF
         MAX_SCF 8
         EPS_SCF 1e-05
         SCF_GUESS ATOMIC
         &OUTER_SCF
            EPS_SCF 1e-05
            MAX_SCF 100
         &END OUTER_SCF
         &OT
            MINIMIZER DIIS
            PRECONDITIONER FULL_SINGLE_INVERSE
         &END OT
      &END SCF
      &XC
         &VDW_POTENTIAL
            POTENTIAL_TYPE PAIR_POTENTIAL
            &PAIR_POTENTIAL
               TYPE DFTD3
               LONG_RANGE_CORRECTION .TRUE.
               REFERENCE_FUNCTIONAL PBE
               PARAMETER_FILE_NAME dftd3.dat
               EPS_CN 0.01
               R_CUTOFF 7.5
            &END PAIR_POTENTIAL
         &END VDW_POTENTIAL
         &XC_FUNCTIONAL PBE
         &END XC_FUNCTIONAL
         &XC_GRID
            XC_DERIV PW
         &END XC_GRID
      &END XC
      &MGRID
         REL_CUTOFF 60
         CUTOFF 800
      &END MGRID
      &QS
         EPS_DEFAULT 1e-12
      &END QS
   &END DFT
   &SUBSYS
      &KIND H
         ELEMENT   H
         BASIS_SET DZVP-GTH-PBE
         POTENTIAL GTH-PBE-q1
      &END KIND
      &KIND Li 
         ELEMENT   Li
         BASIS_SET DZVP-MOLOPT-SR-GTH-q3
         POTENTIAL GTH-PBE-q3
      &END KIND
      &KIND Cl
         BASIS_SET DZVP-MOLOPT-GTH-q7
         POTENTIAL GTH-PBE-q7
      &END KIND
      &KIND O 
         ELEMENT   O
         BASIS_SET DZVP-GTH-PBE
         POTENTIAL GTH-PBE-q6
      &END KIND
      &KIND C 
         ELEMENT   C
         BASIS_SET DZVP-GTH-PBE
         POTENTIAL GTH-PBE-q4
      &END KIND
      &KIND Mg 
         ELEMENT   Mg
         BASIS_SET DZVP-GTH-PBE-q2
         POTENTIAL GTH-PBE-q2
      &END KIND
      &KIND Br
         BASIS_SET DZVP-MOLOPT-SR-GTH-q7
         POTENTIAL GTH-PBE-q7
      &END KIND
      &KIND I
         BASIS_SET DZVP-MOLOPT-SR-GTH-q7
         POTENTIAL GTH-PBE-q7
      &END KIND
      &KIND N
         BASIS_SET DZVP-GTH-PBE
         POTENTIAL GTH-PBE-q5
      &END KIND
      &CELL
   ##cell##
      &END CELL
      &COORD
   ##coord##
      &END COORD
   &END SUBSYS
&END FORCE_EVAL
