&GLOBAL
  PROJECT ##project## 
  RUN_TYPE ENERGY_FORCE
  PRINT_LEVEL LOW
&END GLOBAL
&FORCE_EVAL
  METHOD Quickstep
  &SUBSYS
    &KIND H
      ELEMENT   H
      BASIS_SET DZVP-GTH-PBE
      POTENTIAL GTH-PBE-q1
    &END KIND
    &KIND Li 
      ELEMENT   Li
      BASIS_SET DZVP-MOLOPT-SR-GTH-q3
      POTENTIAL GTH-PBE-q3
    &END KIND
    &KIND Cl
      BASIS_SET DZVP-MOLOPT-GTH-q7
      POTENTIAL GTH-PBE-q7
    &END KIND
    &KIND O 
      ELEMENT   O
      BASIS_SET DZVP-GTH-PBE
      POTENTIAL GTH-PBE-q6
    &END KIND
    &KIND C 
      ELEMENT   C
      BASIS_SET DZVP-GTH-PBE
      POTENTIAL GTH-PBE-q4
    &END KIND
    &KIND Mg 
      ELEMENT   Mg
      BASIS_SET DZVP-GTH-PBE-q2
      POTENTIAL GTH-PBE-q2
    &END KIND
    &CELL
##cell##
    &END CELL
    &COORD
##coord##
    &END COORD
  &END SUBSYS
  &DFT
    BASIS_SET_FILE_NAME  BASIS_SET
    BASIS_SET_FILE_NAME  BASIS_MOLOPT
    POTENTIAL_FILE_NAME  GTH_POTENTIALS
    CHARGE 0
    MULTIPLICITY 0
    &QS
      EPS_DEFAULT 1.0E-10
    &END QS
    &MGRID
      COMMENSURATE
      CUTOFF 250
    &END MGRID
    &XC
      &XC_GRID
      &END XC_GRID
      &XC_FUNCTIONAL PBE
      &END XC_FUNCTIONAL
      &VDW_POTENTIAL
       POTENTIAL_TYPE PAIR_POTENTIAL
       &PAIR_POTENTIAL
        TYPE DFTD3
        LONG_RANGE_CORRECTION
        REFERENCE_FUNCTIONAL PBE
        PARAMETER_FILE_NAME dftd3.dat
        EPS_CN 0.01
        R_CUTOFF 7.5
      &END PAIR_POTENTIAL
     &END VDW_POTENTIAL
    &END XC
    &SCF
      SCF_GUESS ATOMIC
      EPS_SCF 1.0E-7
      MAX_SCF 800
      &DIAGONALIZATION  ON
        ALGORITHM STANDARD
      &END DIAGONALIZATION
      &MIXING  T
        METHOD BROYDEN_MIXING
        ALPHA 0.4
        NBROYDEN 8
      &END MIXING
    &END SCF
  &END DFT
  &PRINT
    &FORCES ON
    &END FORCES
  &END PRINT
&END FORCE_EVAL


